SAT
-127 -107 -41 -130 118 -55 -136 -64 -149 -113 -82 -147 -20 -146 -70 35 -16 -3 15 -125 110 -5 81 -89 -90 -155 145 -61 8 -13 -128 9 -26 -65 103 -121 -140 -109 126 -171 -160 63 -135 104 32 132 39 -14 -168 -106 -98 -21 99 -4 -84 111 -43 -167 -44 76 114 30 36 -124 66 24 166 -161 -137 158 46 -22 49 -174 -159 -77 108 -62 -97 -116 -148 112 -87 152 85 -45 -92 173 69 31 -57 83 37 -141 -138 -163 -144 94 -23 34 -105 115 -72 -59 -12 78 74 -143 -50 93 102 56 25 -79 -172 17 169 -122 -68 142 1 28 54 -170 96 -47 -129 73 -10 -91 -157 -40 123 86 -67 -150 -58 -51 -80 38 -120 -133 18 53 -156 154 -75 -42 11 131 153 -27 -151 -162 -117 139 -100 164 2 101 -6 71 33 -52 -88 60 -95 -175 165 19 119 134 7 29 48 0
